8
2147483647 43 15 71 56 84 30 13 
43 2147483647 52 27 6 70 57 45 
15 52 2147483647 96 33 62 43 8 
71 27 96 2147483647 27 51 77 44 
56 6 33 27 2147483647 36 47 55 
84 70 62 51 36 2147483647 69 42 
30 57 43 77 47 69 2147483647 89 
13 45 8 44 55 42 89 2147483647 
